53
3 80 53 77 
3 59 32 46 
2 14 92 
2 57 89 
2 83 102 
2 108 68 
3 120 19 114 
3 13 16 43 
3 47 67 27 
2 113 30 
2 76 35 
3 74 95 18 
2 99 88 
2 79 26 
2 71 104 
2 98 3 
2 34 100 
2 94 69 
3 93 55 48 
2 50 7 
2 44 1 
3 87 5 64 
2 2 29 
2 54 96 
2 12 11 
3 56 22 33 
3 84 110 31 
2 82 115 
2 9 117 
3 109 106 28 
2 60 90 
3 4 41 118 
2 6 112 
2 103 25 
2 66 39 
2 75 62 
3 78 38 37 
2 52 85 
2 61 81 
2 15 65 
2 45 116 
2 21 36 
2 105 86 
2 24 17 
2 72 42 
2 23 111 
2 91 70 
3 107 20 101 
2 97 10 
2 119 49 
2 51 63 
2 40 8 
2 58 73 
